c File: flat200_3_0.col
c
c SOURCE: Joseph Culberson (joe@cs.ualberta.ca)
c DESCRIPTION: Quasi-random coloring problem
c              generated with flatness = 0
c                             probability = 0.036
c                             known coloring = 3
c                             random seed = 1096
c              Creation Date:  Wed Feb 24 10:40:22 1999
c Maximum degree = 8 Minimum degree = 0
c COLOR VERIFICATION: Using the permuted order
c under simple greedy yields the specified
c coloring number
c Color = 3 specified partitions = 3
c p edge 200 479
c cnf created by edge2cnf
p cnf 600 2237
-1 -2 0
-1 -3 0
-2 -3 0
1 2 3 0
-4 -5 0
-4 -6 0
-5 -6 0
4 5 6 0
-7 -8 0
-7 -9 0
-8 -9 0
7 8 9 0
-10 -11 0
-10 -12 0
-11 -12 0
10 11 12 0
-13 -14 0
-13 -15 0
-14 -15 0
13 14 15 0
-16 -17 0
-16 -18 0
-17 -18 0
16 17 18 0
-19 -20 0
-19 -21 0
-20 -21 0
19 20 21 0
-22 -23 0
-22 -24 0
-23 -24 0
22 23 24 0
-25 -26 0
-25 -27 0
-26 -27 0
25 26 27 0
-28 -29 0
-28 -30 0
-29 -30 0
28 29 30 0
-31 -32 0
-31 -33 0
-32 -33 0
31 32 33 0
-34 -35 0
-34 -36 0
-35 -36 0
34 35 36 0
-37 -38 0
-37 -39 0
-38 -39 0
37 38 39 0
-40 -41 0
-40 -42 0
-41 -42 0
40 41 42 0
-43 -44 0
-43 -45 0
-44 -45 0
43 44 45 0
-46 -47 0
-46 -48 0
-47 -48 0
46 47 48 0
-49 -50 0
-49 -51 0
-50 -51 0
49 50 51 0
-52 -53 0
-52 -54 0
-53 -54 0
52 53 54 0
-55 -56 0
-55 -57 0
-56 -57 0
55 56 57 0
-58 -59 0
-58 -60 0
-59 -60 0
58 59 60 0
-61 -62 0
-61 -63 0
-62 -63 0
61 62 63 0
-64 -65 0
-64 -66 0
-65 -66 0
64 65 66 0
-67 -68 0
-67 -69 0
-68 -69 0
67 68 69 0
-70 -71 0
-70 -72 0
-71 -72 0
70 71 72 0
-73 -74 0
-73 -75 0
-74 -75 0
73 74 75 0
-76 -77 0
-76 -78 0
-77 -78 0
76 77 78 0
-79 -80 0
-79 -81 0
-80 -81 0
79 80 81 0
-82 -83 0
-82 -84 0
-83 -84 0
82 83 84 0
-85 -86 0
-85 -87 0
-86 -87 0
85 86 87 0
-88 -89 0
-88 -90 0
-89 -90 0
88 89 90 0
-91 -92 0
-91 -93 0
-92 -93 0
91 92 93 0
-94 -95 0
-94 -96 0
-95 -96 0
94 95 96 0
-97 -98 0
-97 -99 0
-98 -99 0
97 98 99 0
-100 -101 0
-100 -102 0
-101 -102 0
100 101 102 0
-103 -104 0
-103 -105 0
-104 -105 0
103 104 105 0
-106 -107 0
-106 -108 0
-107 -108 0
106 107 108 0
-109 -110 0
-109 -111 0
-110 -111 0
109 110 111 0
-112 -113 0
-112 -114 0
-113 -114 0
112 113 114 0
-115 -116 0
-115 -117 0
-116 -117 0
115 116 117 0
-118 -119 0
-118 -120 0
-119 -120 0
118 119 120 0
-121 -122 0
-121 -123 0
-122 -123 0
121 122 123 0
-124 -125 0
-124 -126 0
-125 -126 0
124 125 126 0
-127 -128 0
-127 -129 0
-128 -129 0
127 128 129 0
-130 -131 0
-130 -132 0
-131 -132 0
130 131 132 0
-133 -134 0
-133 -135 0
-134 -135 0
133 134 135 0
-136 -137 0
-136 -138 0
-137 -138 0
136 137 138 0
-139 -140 0
-139 -141 0
-140 -141 0
139 140 141 0
-142 -143 0
-142 -144 0
-143 -144 0
142 143 144 0
-145 -146 0
-145 -147 0
-146 -147 0
145 146 147 0
-148 -149 0
-148 -150 0
-149 -150 0
148 149 150 0
-151 -152 0
-151 -153 0
-152 -153 0
151 152 153 0
-154 -155 0
-154 -156 0
-155 -156 0
154 155 156 0
-157 -158 0
-157 -159 0
-158 -159 0
157 158 159 0
-160 -161 0
-160 -162 0
-161 -162 0
160 161 162 0
-163 -164 0
-163 -165 0
-164 -165 0
163 164 165 0
-166 -167 0
-166 -168 0
-167 -168 0
166 167 168 0
-169 -170 0
-169 -171 0
-170 -171 0
169 170 171 0
-172 -173 0
-172 -174 0
-173 -174 0
172 173 174 0
-175 -176 0
-175 -177 0
-176 -177 0
175 176 177 0
-178 -179 0
-178 -180 0
-179 -180 0
178 179 180 0
-181 -182 0
-181 -183 0
-182 -183 0
181 182 183 0
-184 -185 0
-184 -186 0
-185 -186 0
184 185 186 0
-187 -188 0
-187 -189 0
-188 -189 0
187 188 189 0
-190 -191 0
-190 -192 0
-191 -192 0
190 191 192 0
-193 -194 0
-193 -195 0
-194 -195 0
193 194 195 0
-196 -197 0
-196 -198 0
-197 -198 0
196 197 198 0
-199 -200 0
-199 -201 0
-200 -201 0
199 200 201 0
-202 -203 0
-202 -204 0
-203 -204 0
202 203 204 0
-205 -206 0
-205 -207 0
-206 -207 0
205 206 207 0
-208 -209 0
-208 -210 0
-209 -210 0
208 209 210 0
-211 -212 0
-211 -213 0
-212 -213 0
211 212 213 0
-214 -215 0
-214 -216 0
-215 -216 0
214 215 216 0
-217 -218 0
-217 -219 0
-218 -219 0
217 218 219 0
-220 -221 0
-220 -222 0
-221 -222 0
220 221 222 0
-223 -224 0
-223 -225 0
-224 -225 0
223 224 225 0
-226 -227 0
-226 -228 0
-227 -228 0
226 227 228 0
-229 -230 0
-229 -231 0
-230 -231 0
229 230 231 0
-232 -233 0
-232 -234 0
-233 -234 0
232 233 234 0
-235 -236 0
-235 -237 0
-236 -237 0
235 236 237 0
-238 -239 0
-238 -240 0
-239 -240 0
238 239 240 0
-241 -242 0
-241 -243 0
-242 -243 0
241 242 243 0
-244 -245 0
-244 -246 0
-245 -246 0
244 245 246 0
-247 -248 0
-247 -249 0
-248 -249 0
247 248 249 0
-250 -251 0
-250 -252 0
-251 -252 0
250 251 252 0
-253 -254 0
-253 -255 0
-254 -255 0
253 254 255 0
-256 -257 0
-256 -258 0
-257 -258 0
256 257 258 0
-259 -260 0
-259 -261 0
-260 -261 0
259 260 261 0
-262 -263 0
-262 -264 0
-263 -264 0
262 263 264 0
-265 -266 0
-265 -267 0
-266 -267 0
265 266 267 0
-268 -269 0
-268 -270 0
-269 -270 0
268 269 270 0
-271 -272 0
-271 -273 0
-272 -273 0
271 272 273 0
-274 -275 0
-274 -276 0
-275 -276 0
274 275 276 0
-277 -278 0
-277 -279 0
-278 -279 0
277 278 279 0
-280 -281 0
-280 -282 0
-281 -282 0
280 281 282 0
-283 -284 0
-283 -285 0
-284 -285 0
283 284 285 0
-286 -287 0
-286 -288 0
-287 -288 0
286 287 288 0
-289 -290 0
-289 -291 0
-290 -291 0
289 290 291 0
-292 -293 0
-292 -294 0
-293 -294 0
292 293 294 0
-295 -296 0
-295 -297 0
-296 -297 0
295 296 297 0
-298 -299 0
-298 -300 0
-299 -300 0
298 299 300 0
-301 -302 0
-301 -303 0
-302 -303 0
301 302 303 0
-304 -305 0
-304 -306 0
-305 -306 0
304 305 306 0
-307 -308 0
-307 -309 0
-308 -309 0
307 308 309 0
-310 -311 0
-310 -312 0
-311 -312 0
310 311 312 0
-313 -314 0
-313 -315 0
-314 -315 0
313 314 315 0
-316 -317 0
-316 -318 0
-317 -318 0
316 317 318 0
-319 -320 0
-319 -321 0
-320 -321 0
319 320 321 0
-322 -323 0
-322 -324 0
-323 -324 0
322 323 324 0
-325 -326 0
-325 -327 0
-326 -327 0
325 326 327 0
-328 -329 0
-328 -330 0
-329 -330 0
328 329 330 0
-331 -332 0
-331 -333 0
-332 -333 0
331 332 333 0
-334 -335 0
-334 -336 0
-335 -336 0
334 335 336 0
-337 -338 0
-337 -339 0
-338 -339 0
337 338 339 0
-340 -341 0
-340 -342 0
-341 -342 0
340 341 342 0
-343 -344 0
-343 -345 0
-344 -345 0
343 344 345 0
-346 -347 0
-346 -348 0
-347 -348 0
346 347 348 0
-349 -350 0
-349 -351 0
-350 -351 0
349 350 351 0
-352 -353 0
-352 -354 0
-353 -354 0
352 353 354 0
-355 -356 0
-355 -357 0
-356 -357 0
355 356 357 0
-358 -359 0
-358 -360 0
-359 -360 0
358 359 360 0
-361 -362 0
-361 -363 0
-362 -363 0
361 362 363 0
-364 -365 0
-364 -366 0
-365 -366 0
364 365 366 0
-367 -368 0
-367 -369 0
-368 -369 0
367 368 369 0
-370 -371 0
-370 -372 0
-371 -372 0
370 371 372 0
-373 -374 0
-373 -375 0
-374 -375 0
373 374 375 0
-376 -377 0
-376 -378 0
-377 -378 0
376 377 378 0
-379 -380 0
-379 -381 0
-380 -381 0
379 380 381 0
-382 -383 0
-382 -384 0
-383 -384 0
382 383 384 0
-385 -386 0
-385 -387 0
-386 -387 0
385 386 387 0
-388 -389 0
-388 -390 0
-389 -390 0
388 389 390 0
-391 -392 0
-391 -393 0
-392 -393 0
391 392 393 0
-394 -395 0
-394 -396 0
-395 -396 0
394 395 396 0
-397 -398 0
-397 -399 0
-398 -399 0
397 398 399 0
-400 -401 0
-400 -402 0
-401 -402 0
400 401 402 0
-403 -404 0
-403 -405 0
-404 -405 0
403 404 405 0
-406 -407 0
-406 -408 0
-407 -408 0
406 407 408 0
-409 -410 0
-409 -411 0
-410 -411 0
409 410 411 0
-412 -413 0
-412 -414 0
-413 -414 0
412 413 414 0
-415 -416 0
-415 -417 0
-416 -417 0
415 416 417 0
-418 -419 0
-418 -420 0
-419 -420 0
418 419 420 0
-421 -422 0
-421 -423 0
-422 -423 0
421 422 423 0
-424 -425 0
-424 -426 0
-425 -426 0
424 425 426 0
-427 -428 0
-427 -429 0
-428 -429 0
427 428 429 0
-430 -431 0
-430 -432 0
-431 -432 0
430 431 432 0
-433 -434 0
-433 -435 0
-434 -435 0
433 434 435 0
-436 -437 0
-436 -438 0
-437 -438 0
436 437 438 0
-439 -440 0
-439 -441 0
-440 -441 0
439 440 441 0
-442 -443 0
-442 -444 0
-443 -444 0
442 443 444 0
-445 -446 0
-445 -447 0
-446 -447 0
445 446 447 0
-448 -449 0
-448 -450 0
-449 -450 0
448 449 450 0
-451 -452 0
-451 -453 0
-452 -453 0
451 452 453 0
-454 -455 0
-454 -456 0
-455 -456 0
454 455 456 0
-457 -458 0
-457 -459 0
-458 -459 0
457 458 459 0
-460 -461 0
-460 -462 0
-461 -462 0
460 461 462 0
-463 -464 0
-463 -465 0
-464 -465 0
463 464 465 0
-466 -467 0
-466 -468 0
-467 -468 0
466 467 468 0
-469 -470 0
-469 -471 0
-470 -471 0
469 470 471 0
-472 -473 0
-472 -474 0
-473 -474 0
472 473 474 0
-475 -476 0
-475 -477 0
-476 -477 0
475 476 477 0
-478 -479 0
-478 -480 0
-479 -480 0
478 479 480 0
-481 -482 0
-481 -483 0
-482 -483 0
481 482 483 0
-484 -485 0
-484 -486 0
-485 -486 0
484 485 486 0
-487 -488 0
-487 -489 0
-488 -489 0
487 488 489 0
-490 -491 0
-490 -492 0
-491 -492 0
490 491 492 0
-493 -494 0
-493 -495 0
-494 -495 0
493 494 495 0
-496 -497 0
-496 -498 0
-497 -498 0
496 497 498 0
-499 -500 0
-499 -501 0
-500 -501 0
499 500 501 0
-502 -503 0
-502 -504 0
-503 -504 0
502 503 504 0
-505 -506 0
-505 -507 0
-506 -507 0
505 506 507 0
-508 -509 0
-508 -510 0
-509 -510 0
508 509 510 0
-511 -512 0
-511 -513 0
-512 -513 0
511 512 513 0
-514 -515 0
-514 -516 0
-515 -516 0
514 515 516 0
-517 -518 0
-517 -519 0
-518 -519 0
517 518 519 0
-520 -521 0
-520 -522 0
-521 -522 0
520 521 522 0
-523 -524 0
-523 -525 0
-524 -525 0
523 524 525 0
-526 -527 0
-526 -528 0
-527 -528 0
526 527 528 0
-529 -530 0
-529 -531 0
-530 -531 0
529 530 531 0
-532 -533 0
-532 -534 0
-533 -534 0
532 533 534 0
-535 -536 0
-535 -537 0
-536 -537 0
535 536 537 0
-538 -539 0
-538 -540 0
-539 -540 0
538 539 540 0
-541 -542 0
-541 -543 0
-542 -543 0
541 542 543 0
-544 -545 0
-544 -546 0
-545 -546 0
544 545 546 0
-547 -548 0
-547 -549 0
-548 -549 0
547 548 549 0
-550 -551 0
-550 -552 0
-551 -552 0
550 551 552 0
-553 -554 0
-553 -555 0
-554 -555 0
553 554 555 0
-556 -557 0
-556 -558 0
-557 -558 0
556 557 558 0
-559 -560 0
-559 -561 0
-560 -561 0
559 560 561 0
-562 -563 0
-562 -564 0
-563 -564 0
562 563 564 0
-565 -566 0
-565 -567 0
-566 -567 0
565 566 567 0
-568 -569 0
-568 -570 0
-569 -570 0
568 569 570 0
-571 -572 0
-571 -573 0
-572 -573 0
571 572 573 0
-574 -575 0
-574 -576 0
-575 -576 0
574 575 576 0
-577 -578 0
-577 -579 0
-578 -579 0
577 578 579 0
-580 -581 0
-580 -582 0
-581 -582 0
580 581 582 0
-583 -584 0
-583 -585 0
-584 -585 0
583 584 585 0
-586 -587 0
-586 -588 0
-587 -588 0
586 587 588 0
-589 -590 0
-589 -591 0
-590 -591 0
589 590 591 0
-592 -593 0
-592 -594 0
-593 -594 0
592 593 594 0
-595 -596 0
-595 -597 0
-596 -597 0
595 596 597 0
-598 -599 0
-598 -600 0
-599 -600 0
598 599 600 0
-160 -1 0
-161 -2 0
-162 -3 0
-448 -1 0
-449 -2 0
-450 -3 0
-481 -1 0
-482 -2 0
-483 -3 0
-553 -1 0
-554 -2 0
-555 -3 0
-319 -4 0
-320 -5 0
-321 -6 0
-322 -4 0
-323 -5 0
-324 -6 0
-349 -4 0
-350 -5 0
-351 -6 0
-421 -4 0
-422 -5 0
-423 -6 0
-64 -7 0
-65 -8 0
-66 -9 0
-199 -7 0
-200 -8 0
-201 -9 0
-523 -7 0
-524 -8 0
-525 -9 0
-178 -10 0
-179 -11 0
-180 -12 0
-202 -10 0
-203 -11 0
-204 -12 0
-211 -10 0
-212 -11 0
-213 -12 0
-316 -10 0
-317 -11 0
-318 -12 0
-355 -10 0
-356 -11 0
-357 -12 0
-445 -10 0
-446 -11 0
-447 -12 0
-34 -13 0
-35 -14 0
-36 -15 0
-46 -13 0
-47 -14 0
-48 -15 0
-211 -13 0
-212 -14 0
-213 -15 0
-463 -13 0
-464 -14 0
-465 -15 0
-502 -13 0
-503 -14 0
-504 -15 0
-565 -13 0
-566 -14 0
-567 -15 0
-568 -13 0
-569 -14 0
-570 -15 0
-22 -16 0
-23 -17 0
-24 -18 0
-73 -16 0
-74 -17 0
-75 -18 0
-91 -16 0
-92 -17 0
-93 -18 0
-367 -16 0
-368 -17 0
-369 -18 0
-484 -16 0
-485 -17 0
-486 -18 0
-574 -16 0
-575 -17 0
-576 -18 0
-121 -19 0
-122 -20 0
-123 -21 0
-205 -19 0
-206 -20 0
-207 -21 0
-295 -19 0
-296 -20 0
-297 -21 0
-319 -19 0
-320 -20 0
-321 -21 0
-355 -19 0
-356 -20 0
-357 -21 0
-160 -22 0
-161 -23 0
-162 -24 0
-376 -22 0
-377 -23 0
-378 -24 0
-382 -22 0
-383 -23 0
-384 -24 0
-583 -22 0
-584 -23 0
-585 -24 0
-148 -25 0
-149 -26 0
-150 -27 0
-190 -25 0
-191 -26 0
-192 -27 0
-220 -25 0
-221 -26 0
-222 -27 0
-400 -25 0
-401 -26 0
-402 -27 0
-115 -28 0
-116 -29 0
-117 -30 0
-145 -28 0
-146 -29 0
-147 -30 0
-232 -28 0
-233 -29 0
-234 -30 0
-370 -28 0
-371 -29 0
-372 -30 0
-595 -28 0
-596 -29 0
-597 -30 0
-154 -31 0
-155 -32 0
-156 -33 0
-175 -31 0
-176 -32 0
-177 -33 0
-205 -31 0
-206 -32 0
-207 -33 0
-385 -31 0
-386 -32 0
-387 -33 0
-592 -31 0
-593 -32 0
-594 -33 0
-139 -34 0
-140 -35 0
-141 -36 0
-259 -34 0
-260 -35 0
-261 -36 0
-271 -34 0
-272 -35 0
-273 -36 0
-499 -34 0
-500 -35 0
-501 -36 0
-187 -37 0
-188 -38 0
-189 -39 0
-328 -37 0
-329 -38 0
-330 -39 0
-331 -37 0
-332 -38 0
-333 -39 0
-451 -37 0
-452 -38 0
-453 -39 0
-46 -40 0
-47 -41 0
-48 -42 0
-49 -40 0
-50 -41 0
-51 -42 0
-367 -40 0
-368 -41 0
-369 -42 0
-421 -40 0
-422 -41 0
-423 -42 0
-445 -40 0
-446 -41 0
-447 -42 0
-517 -40 0
-518 -41 0
-519 -42 0
-580 -40 0
-581 -41 0
-582 -42 0
-271 -43 0
-272 -44 0
-273 -45 0
-283 -43 0
-284 -44 0
-285 -45 0
-415 -43 0
-416 -44 0
-417 -45 0
-130 -46 0
-131 -47 0
-132 -48 0
-172 -46 0
-173 -47 0
-174 -48 0
-232 -46 0
-233 -47 0
-234 -48 0
-307 -46 0
-308 -47 0
-309 -48 0
-466 -46 0
-467 -47 0
-468 -48 0
-472 -46 0
-473 -47 0
-474 -48 0
-91 -49 0
-92 -50 0
-93 -51 0
-133 -49 0
-134 -50 0
-135 -51 0
-142 -49 0
-143 -50 0
-144 -51 0
-280 -49 0
-281 -50 0
-282 -51 0
-460 -49 0
-461 -50 0
-462 -51 0
-202 -52 0
-203 -53 0
-204 -54 0
-298 -52 0
-299 -53 0
-300 -54 0
-436 -52 0
-437 -53 0
-438 -54 0
-448 -52 0
-449 -53 0
-450 -54 0
-532 -52 0
-533 -53 0
-534 -54 0
-580 -52 0
-581 -53 0
-582 -54 0
-124 -55 0
-125 -56 0
-126 -57 0
-208 -55 0
-209 -56 0
-210 -57 0
-319 -55 0
-320 -56 0
-321 -57 0
-358 -55 0
-359 -56 0
-360 -57 0
-427 -55 0
-428 -56 0
-429 -57 0
-181 -58 0
-182 -59 0
-183 -60 0
-277 -58 0
-278 -59 0
-279 -60 0
-316 -58 0
-317 -59 0
-318 -60 0
-532 -58 0
-533 -59 0
-534 -60 0
-598 -58 0
-599 -59 0
-600 -60 0
-73 -61 0
-74 -62 0
-75 -63 0
-151 -61 0
-152 -62 0
-153 -63 0
-160 -61 0
-161 -62 0
-162 -63 0
-376 -61 0
-377 -62 0
-378 -63 0
-433 -61 0
-434 -62 0
-435 -63 0
-505 -61 0
-506 -62 0
-507 -63 0
-169 -64 0
-170 -65 0
-171 -66 0
-187 -64 0
-188 -65 0
-189 -66 0
-349 -64 0
-350 -65 0
-351 -66 0
-406 -64 0
-407 -65 0
-408 -66 0
-517 -64 0
-518 -65 0
-519 -66 0
-70 -67 0
-71 -68 0
-72 -69 0
-76 -67 0
-77 -68 0
-78 -69 0
-160 -67 0
-161 -68 0
-162 -69 0
-394 -67 0
-395 -68 0
-396 -69 0
-79 -70 0
-80 -71 0
-81 -72 0
-211 -70 0
-212 -71 0
-213 -72 0
-580 -70 0
-581 -71 0
-582 -72 0
-226 -73 0
-227 -74 0
-228 -75 0
-298 -73 0
-299 -74 0
-300 -75 0
-373 -73 0
-374 -74 0
-375 -75 0
-490 -73 0
-491 -74 0
-492 -75 0
-523 -73 0
-524 -74 0
-525 -75 0
-169 -76 0
-170 -77 0
-171 -78 0
-181 -76 0
-182 -77 0
-183 -78 0
-448 -76 0
-449 -77 0
-450 -78 0
-532 -76 0
-533 -77 0
-534 -78 0
-97 -79 0
-98 -80 0
-99 -81 0
-220 -79 0
-221 -80 0
-222 -81 0
-361 -79 0
-362 -80 0
-363 -81 0
-406 -79 0
-407 -80 0
-408 -81 0
-478 -79 0
-479 -80 0
-480 -81 0
-526 -79 0
-527 -80 0
-528 -81 0
-199 -82 0
-200 -83 0
-201 -84 0
-382 -82 0
-383 -83 0
-384 -84 0
-88 -85 0
-89 -86 0
-90 -87 0
-256 -85 0
-257 -86 0
-258 -87 0
-574 -85 0
-575 -86 0
-576 -87 0
-580 -85 0
-581 -86 0
-582 -87 0
-190 -88 0
-191 -89 0
-192 -90 0
-202 -88 0
-203 -89 0
-204 -90 0
-283 -88 0
-284 -89 0
-285 -90 0
-328 -88 0
-329 -89 0
-330 -90 0
-145 -91 0
-146 -92 0
-147 -93 0
-163 -91 0
-164 -92 0
-165 -93 0
-439 -91 0
-440 -92 0
-441 -93 0
-583 -91 0
-584 -92 0
-585 -93 0
-190 -94 0
-191 -95 0
-192 -96 0
-208 -94 0
-209 -95 0
-210 -96 0
-247 -94 0
-248 -95 0
-249 -96 0
-298 -94 0
-299 -95 0
-300 -96 0
-403 -94 0
-404 -95 0
-405 -96 0
-442 -94 0
-443 -95 0
-444 -96 0
-541 -94 0
-542 -95 0
-543 -96 0
-586 -94 0
-587 -95 0
-588 -96 0
-112 -97 0
-113 -98 0
-114 -99 0
-412 -97 0
-413 -98 0
-414 -99 0
-472 -97 0
-473 -98 0
-474 -99 0
-499 -97 0
-500 -98 0
-501 -99 0
-127 -100 0
-128 -101 0
-129 -102 0
-280 -100 0
-281 -101 0
-282 -102 0
-286 -100 0
-287 -101 0
-288 -102 0
-370 -100 0
-371 -101 0
-372 -102 0
-535 -100 0
-536 -101 0
-537 -102 0
-334 -103 0
-335 -104 0
-336 -105 0
-406 -103 0
-407 -104 0
-408 -105 0
-145 -106 0
-146 -107 0
-147 -108 0
-181 -106 0
-182 -107 0
-183 -108 0
-190 -106 0
-191 -107 0
-192 -108 0
-430 -106 0
-431 -107 0
-432 -108 0
-526 -106 0
-527 -107 0
-528 -108 0
-562 -106 0
-563 -107 0
-564 -108 0
-217 -112 0
-218 -113 0
-219 -114 0
-259 -112 0
-260 -113 0
-261 -114 0
-529 -112 0
-530 -113 0
-531 -114 0
-205 -115 0
-206 -116 0
-207 -117 0
-310 -115 0
-311 -116 0
-312 -117 0
-436 -115 0
-437 -116 0
-438 -117 0
-442 -115 0
-443 -116 0
-444 -117 0
-469 -115 0
-470 -116 0
-471 -117 0
-298 -118 0
-299 -119 0
-300 -120 0
-328 -118 0
-329 -119 0
-330 -120 0
-529 -118 0
-530 -119 0
-531 -120 0
-166 -121 0
-167 -122 0
-168 -123 0
-484 -121 0
-485 -122 0
-486 -123 0
-487 -121 0
-488 -122 0
-489 -123 0
-127 -124 0
-128 -125 0
-129 -126 0
-133 -124 0
-134 -125 0
-135 -126 0
-322 -124 0
-323 -125 0
-324 -126 0
-529 -124 0
-530 -125 0
-531 -126 0
-172 -127 0
-173 -128 0
-174 -129 0
-286 -127 0
-287 -128 0
-288 -129 0
-289 -127 0
-290 -128 0
-291 -129 0
-391 -127 0
-392 -128 0
-393 -129 0
-256 -130 0
-257 -131 0
-258 -132 0
-388 -130 0
-389 -131 0
-390 -132 0
-448 -130 0
-449 -131 0
-450 -132 0
-478 -130 0
-479 -131 0
-480 -132 0
-496 -130 0
-497 -131 0
-498 -132 0
-547 -130 0
-548 -131 0
-549 -132 0
-169 -133 0
-170 -134 0
-171 -135 0
-172 -133 0
-173 -134 0
-174 -135 0
-511 -133 0
-512 -134 0
-513 -135 0
-496 -136 0
-497 -137 0
-498 -138 0
-577 -136 0
-578 -137 0
-579 -138 0
-580 -136 0
-581 -137 0
-582 -138 0
-397 -139 0
-398 -140 0
-399 -141 0
-271 -142 0
-272 -143 0
-273 -144 0
-442 -142 0
-443 -143 0
-444 -144 0
-451 -142 0
-452 -143 0
-453 -144 0
-196 -145 0
-197 -146 0
-198 -147 0
-280 -145 0
-281 -146 0
-282 -147 0
-334 -145 0
-335 -146 0
-336 -147 0
-565 -145 0
-566 -146 0
-567 -147 0
-592 -145 0
-593 -146 0
-594 -147 0
-208 -148 0
-209 -149 0
-210 -150 0
-313 -148 0
-314 -149 0
-315 -150 0
-316 -148 0
-317 -149 0
-318 -150 0
-328 -148 0
-329 -149 0
-330 -150 0
-463 -148 0
-464 -149 0
-465 -150 0
-487 -148 0
-488 -149 0
-489 -150 0
-265 -151 0
-266 -152 0
-267 -153 0
-382 -151 0
-383 -152 0
-384 -153 0
-418 -151 0
-419 -152 0
-420 -153 0
-439 -151 0
-440 -152 0
-441 -153 0
-523 -151 0
-524 -152 0
-525 -153 0
-196 -154 0
-197 -155 0
-198 -156 0
-199 -154 0
-200 -155 0
-201 -156 0
-247 -154 0
-248 -155 0
-249 -156 0
-397 -154 0
-398 -155 0
-399 -156 0
-421 -154 0
-422 -155 0
-423 -156 0
-553 -154 0
-554 -155 0
-555 -156 0
-430 -157 0
-431 -158 0
-432 -159 0
-457 -157 0
-458 -158 0
-459 -159 0
-523 -157 0
-524 -158 0
-525 -159 0
-535 -157 0
-536 -158 0
-537 -159 0
-169 -160 0
-170 -161 0
-171 -162 0
-223 -160 0
-224 -161 0
-225 -162 0
-418 -160 0
-419 -161 0
-420 -162 0
-466 -160 0
-467 -161 0
-468 -162 0
-256 -166 0
-257 -167 0
-258 -168 0
-445 -166 0
-446 -167 0
-447 -168 0
-493 -166 0
-494 -167 0
-495 -168 0
-571 -166 0
-572 -167 0
-573 -168 0
-409 -169 0
-410 -170 0
-411 -171 0
-550 -169 0
-551 -170 0
-552 -171 0
-175 -172 0
-176 -173 0
-177 -174 0
-331 -172 0
-332 -173 0
-333 -174 0
-259 -175 0
-260 -176 0
-261 -177 0
-412 -175 0
-413 -176 0
-414 -177 0
-505 -175 0
-506 -176 0
-507 -177 0
-514 -175 0
-515 -176 0
-516 -177 0
-526 -175 0
-527 -176 0
-528 -177 0
-367 -178 0
-368 -179 0
-369 -180 0
-376 -178 0
-377 -179 0
-378 -180 0
-481 -178 0
-482 -179 0
-483 -180 0
-532 -178 0
-533 -179 0
-534 -180 0
-547 -178 0
-548 -179 0
-549 -180 0
-586 -178 0
-587 -179 0
-588 -180 0
-229 -181 0
-230 -182 0
-231 -183 0
-304 -181 0
-305 -182 0
-306 -183 0
-412 -181 0
-413 -182 0
-414 -183 0
-418 -181 0
-419 -182 0
-420 -183 0
-556 -181 0
-557 -182 0
-558 -183 0
-253 -184 0
-254 -185 0
-255 -186 0
-274 -184 0
-275 -185 0
-276 -186 0
-283 -184 0
-284 -185 0
-285 -186 0
-550 -184 0
-551 -185 0
-552 -186 0
-592 -184 0
-593 -185 0
-594 -186 0
-223 -187 0
-224 -188 0
-225 -189 0
-394 -187 0
-395 -188 0
-396 -189 0
-553 -187 0
-554 -188 0
-555 -189 0
-286 -190 0
-287 -191 0
-288 -192 0
-463 -190 0
-464 -191 0
-465 -192 0
-265 -193 0
-266 -194 0
-267 -195 0
-502 -193 0
-503 -194 0
-504 -195 0
-361 -196 0
-362 -197 0
-363 -198 0
-580 -196 0
-581 -197 0
-582 -198 0
-235 -199 0
-236 -200 0
-237 -201 0
-322 -199 0
-323 -200 0
-324 -201 0
-403 -199 0
-404 -200 0
-405 -201 0
-271 -202 0
-272 -203 0
-273 -204 0
-484 -202 0
-485 -203 0
-486 -204 0
-568 -205 0
-569 -206 0
-570 -207 0
-340 -208 0
-341 -209 0
-342 -210 0
-397 -208 0
-398 -209 0
-399 -210 0
-385 -211 0
-386 -212 0
-387 -213 0
-421 -211 0
-422 -212 0
-423 -213 0
-586 -211 0
-587 -212 0
-588 -213 0
-454 -214 0
-455 -215 0
-456 -216 0
-304 -217 0
-305 -218 0
-306 -219 0
-340 -217 0
-341 -218 0
-342 -219 0
-367 -217 0
-368 -218 0
-369 -219 0
-406 -217 0
-407 -218 0
-408 -219 0
-226 -220 0
-227 -221 0
-228 -222 0
-364 -220 0
-365 -221 0
-366 -222 0
-538 -220 0
-539 -221 0
-540 -222 0
-505 -223 0
-506 -224 0
-507 -225 0
-568 -223 0
-569 -224 0
-570 -225 0
-280 -226 0
-281 -227 0
-282 -228 0
-295 -226 0
-296 -227 0
-297 -228 0
-472 -226 0
-473 -227 0
-474 -228 0
-505 -226 0
-506 -227 0
-507 -228 0
-589 -226 0
-590 -227 0
-591 -228 0
-340 -229 0
-341 -230 0
-342 -231 0
-439 -229 0
-440 -230 0
-441 -231 0
-388 -232 0
-389 -233 0
-390 -234 0
-535 -232 0
-536 -233 0
-537 -234 0
-436 -235 0
-437 -236 0
-438 -237 0
-592 -235 0
-593 -236 0
-594 -237 0
-460 -238 0
-461 -239 0
-462 -240 0
-463 -241 0
-464 -242 0
-465 -243 0
-586 -241 0
-587 -242 0
-588 -243 0
-274 -244 0
-275 -245 0
-276 -246 0
-298 -244 0
-299 -245 0
-300 -246 0
-343 -244 0
-344 -245 0
-345 -246 0
-379 -244 0
-380 -245 0
-381 -246 0
-304 -247 0
-305 -248 0
-306 -249 0
-445 -247 0
-446 -248 0
-447 -249 0
-574 -247 0
-575 -248 0
-576 -249 0
-364 -250 0
-365 -251 0
-366 -252 0
-442 -250 0
-443 -251 0
-444 -252 0
-505 -250 0
-506 -251 0
-507 -252 0
-268 -253 0
-269 -254 0
-270 -255 0
-301 -253 0
-302 -254 0
-303 -255 0
-343 -253 0
-344 -254 0
-345 -255 0
-364 -253 0
-365 -254 0
-366 -255 0
-547 -253 0
-548 -254 0
-549 -255 0
-274 -256 0
-275 -257 0
-276 -258 0
-400 -256 0
-401 -257 0
-402 -258 0
-319 -259 0
-320 -260 0
-321 -261 0
-355 -259 0
-356 -260 0
-357 -261 0
-487 -259 0
-488 -260 0
-489 -261 0
-520 -259 0
-521 -260 0
-522 -261 0
-406 -262 0
-407 -263 0
-408 -264 0
-430 -262 0
-431 -263 0
-432 -264 0
-454 -262 0
-455 -263 0
-456 -264 0
-538 -262 0
-539 -263 0
-540 -264 0
-466 -265 0
-467 -266 0
-468 -267 0
-343 -268 0
-344 -269 0
-345 -270 0
-496 -268 0
-497 -269 0
-498 -270 0
-574 -268 0
-575 -269 0
-576 -270 0
-370 -274 0
-371 -275 0
-372 -276 0
-520 -274 0
-521 -275 0
-522 -276 0
-322 -277 0
-323 -278 0
-324 -279 0
-349 -277 0
-350 -278 0
-351 -279 0
-565 -277 0
-566 -278 0
-567 -279 0
-577 -277 0
-578 -278 0
-579 -279 0
-490 -280 0
-491 -281 0
-492 -282 0
-358 -283 0
-359 -284 0
-360 -285 0
-385 -286 0
-386 -287 0
-387 -288 0
-469 -286 0
-470 -287 0
-471 -288 0
-484 -286 0
-485 -287 0
-486 -288 0
-571 -286 0
-572 -287 0
-573 -288 0
-478 -289 0
-479 -290 0
-480 -291 0
-553 -289 0
-554 -290 0
-555 -291 0
-556 -289 0
-557 -290 0
-558 -291 0
-589 -289 0
-590 -290 0
-591 -291 0
-541 -292 0
-542 -293 0
-543 -294 0
-583 -292 0
-584 -293 0
-585 -294 0
-586 -292 0
-587 -293 0
-588 -294 0
-301 -295 0
-302 -296 0
-303 -297 0
-358 -295 0
-359 -296 0
-360 -297 0
-379 -295 0
-380 -296 0
-381 -297 0
-337 -298 0
-338 -299 0
-339 -300 0
-445 -298 0
-446 -299 0
-447 -300 0
-454 -298 0
-455 -299 0
-456 -300 0
-499 -301 0
-500 -302 0
-501 -303 0
-433 -304 0
-434 -305 0
-435 -306 0
-517 -304 0
-518 -305 0
-519 -306 0
-427 -307 0
-428 -308 0
-429 -309 0
-427 -310 0
-428 -311 0
-429 -312 0
-568 -310 0
-569 -311 0
-570 -312 0
-541 -313 0
-542 -314 0
-543 -315 0
-592 -313 0
-593 -314 0
-594 -315 0
-469 -316 0
-470 -317 0
-471 -318 0
-520 -316 0
-521 -317 0
-522 -318 0
-523 -316 0
-524 -317 0
-525 -318 0
-337 -319 0
-338 -320 0
-339 -321 0
-475 -319 0
-476 -320 0
-477 -321 0
-433 -322 0
-434 -323 0
-435 -324 0
-505 -322 0
-506 -323 0
-507 -324 0
-562 -322 0
-563 -323 0
-564 -324 0
-361 -325 0
-362 -326 0
-363 -327 0
-373 -325 0
-374 -326 0
-375 -327 0
-430 -325 0
-431 -326 0
-432 -327 0
-556 -325 0
-557 -326 0
-558 -327 0
-379 -328 0
-380 -329 0
-381 -330 0
-490 -328 0
-491 -329 0
-492 -330 0
-502 -328 0
-503 -329 0
-504 -330 0
-574 -331 0
-575 -332 0
-576 -333 0
-523 -334 0
-524 -335 0
-525 -336 0
-493 -337 0
-494 -338 0
-495 -339 0
-553 -337 0
-554 -338 0
-555 -339 0
-592 -337 0
-593 -338 0
-594 -339 0
-598 -337 0
-599 -338 0
-600 -339 0
-364 -340 0
-365 -341 0
-366 -342 0
-418 -340 0
-419 -341 0
-420 -342 0
-595 -340 0
-596 -341 0
-597 -342 0
-598 -340 0
-599 -341 0
-600 -342 0
-484 -343 0
-485 -344 0
-486 -345 0
-490 -343 0
-491 -344 0
-492 -345 0
-409 -346 0
-410 -347 0
-411 -348 0
-529 -346 0
-530 -347 0
-531 -348 0
-592 -346 0
-593 -347 0
-594 -348 0
-409 -349 0
-410 -350 0
-411 -351 0
-556 -349 0
-557 -350 0
-558 -351 0
-598 -349 0
-599 -350 0
-600 -351 0
-418 -352 0
-419 -353 0
-420 -354 0
-517 -352 0
-518 -353 0
-519 -354 0
-559 -352 0
-560 -353 0
-561 -354 0
-580 -352 0
-581 -353 0
-582 -354 0
-487 -355 0
-488 -356 0
-489 -357 0
-514 -355 0
-515 -356 0
-516 -357 0
-556 -358 0
-557 -359 0
-558 -360 0
-367 -361 0
-368 -362 0
-369 -363 0
-475 -364 0
-476 -365 0
-477 -366 0
-496 -370 0
-497 -371 0
-498 -372 0
-409 -373 0
-410 -374 0
-411 -375 0
-562 -373 0
-563 -374 0
-564 -375 0
-511 -376 0
-512 -377 0
-513 -378 0
-583 -376 0
-584 -377 0
-585 -378 0
-415 -379 0
-416 -380 0
-417 -381 0
-496 -382 0
-497 -383 0
-498 -384 0
-571 -385 0
-572 -386 0
-573 -387 0
-586 -388 0
-587 -389 0
-588 -390 0
-508 -391 0
-509 -392 0
-510 -393 0
-562 -391 0
-563 -392 0
-564 -393 0
-598 -391 0
-599 -392 0
-600 -393 0
-478 -394 0
-479 -395 0
-480 -396 0
-553 -394 0
-554 -395 0
-555 -396 0
-436 -397 0
-437 -398 0
-438 -399 0
-457 -400 0
-458 -401 0
-459 -402 0
-577 -400 0
-578 -401 0
-579 -402 0
-451 -406 0
-452 -407 0
-453 -408 0
-571 -406 0
-572 -407 0
-573 -408 0
-451 -412 0
-452 -413 0
-453 -414 0
-445 -415 0
-446 -416 0
-447 -417 0
-505 -415 0
-506 -416 0
-507 -417 0
-556 -415 0
-557 -416 0
-558 -417 0
-574 -415 0
-575 -416 0
-576 -417 0
-562 -418 0
-563 -419 0
-564 -420 0
-556 -421 0
-557 -422 0
-558 -423 0
-571 -424 0
-572 -425 0
-573 -426 0
-508 -433 0
-509 -434 0
-510 -435 0
-541 -433 0
-542 -434 0
-543 -435 0
-475 -439 0
-476 -440 0
-477 -441 0
-517 -439 0
-518 -440 0
-519 -441 0
-583 -442 0
-584 -443 0
-585 -444 0
-478 -448 0
-479 -449 0
-480 -450 0
-499 -451 0
-500 -452 0
-501 -453 0
-508 -454 0
-509 -455 0
-510 -456 0
-475 -457 0
-476 -458 0
-477 -459 0
-580 -457 0
-581 -458 0
-582 -459 0
-529 -460 0
-530 -461 0
-531 -462 0
-496 -463 0
-497 -464 0
-498 -465 0
-490 -466 0
-491 -467 0
-492 -468 0
-565 -472 0
-566 -473 0
-567 -474 0
-559 -481 0
-560 -482 0
-561 -483 0
-544 -484 0
-545 -485 0
-546 -486 0
-511 -490 0
-512 -491 0
-513 -492 0
-538 -493 0
-539 -494 0
-540 -495 0
-583 -496 0
-584 -497 0
-585 -498 0
-547 -499 0
-548 -500 0
-549 -501 0
-556 -502 0
-557 -503 0
-558 -504 0
-514 -505 0
-515 -506 0
-516 -507 0
-520 -508 0
-521 -509 0
-522 -510 0
-526 -508 0
-527 -509 0
-528 -510 0
-547 -520 0
-548 -521 0
-549 -522 0
-598 -532 0
-599 -533 0
-600 -534 0
-577 -535 0
-578 -536 0
-579 -537 0
-553 -538 0
-554 -539 0
-555 -540 0
-571 -550 0
-572 -551 0
-573 -552 0
-595 -550 0
-596 -551 0
-597 -552 0
-574 -559 0
-575 -560 0
-576 -561 0
-586 -559 0
-587 -560 0
-588 -561 0
-568 -562 0
-569 -563 0
-570 -564 0
-586 -568 0
-587 -569 0
-588 -570 0
-583 -571 0
-584 -572 0
-585 -573 0
-583 -574 0
-584 -575 0
-585 -576 0
-598 -577 0
-599 -578 0
-600 -579 0
